
Gurobi 10.0.0 (linux64) logging started Fri Jan 26 15:48:20 2024

Set parameter LogFile to value "../results/logs/log_CA-CondMat_4_250_2024_01_26_13_45.log"
Set parameter LazyConstraints to value 1
Gurobi Optimizer version 10.0.0 build v10.0.0rc2 (linux64)

CPU model: Intel(R) Core(TM) i7-9800X CPU @ 3.80GHz, instruction set [SSE2|AVX|AVX2|AVX512]
Thread count: 8 physical cores, 8 logical processors, using up to 8 threads

Optimize a model with 46267 rows, 46266 columns and 466288 nonzeros
Model fingerprint: 0x65124c21
Variable types: 0 continuous, 46266 integer (46266 binary)
Coefficient statistics:
  Matrix range     [1e+00, 4e+00]
  Objective range  [1e+00, 1e+00]
  Bounds range     [1e+00, 1e+00]
  RHS range        [1e+00, 2e+02]
Found heuristic solution: objective -0.0000000
Presolve removed 16980 rows and 8490 columns
Presolve time: 0.56s
Presolved: 29287 rows, 37776 columns, 393881 nonzeros
Variable types: 0 continuous, 37776 integer (37776 binary)
Root relaxation presolved: 29287 rows, 37776 columns, 393881 nonzeros

Deterministic concurrent LP optimizer: primal and dual simplex
Showing first log only...

Concurrent spin time: 0.00s

Solved with dual simplex

Use crossover to convert LP symmetric solution to basic solution...

Root relaxation: objective 1.434384e+04, 3150 iterations, 0.35 seconds (0.38 work units)

    Nodes    |    Current Node    |     Objective Bounds      |     Work
 Expl Unexpl |  Obj  Depth IntInf | Incumbent    BestBd   Gap | It/Node Time

     0     0 14343.8364    0  860   -0.00000 14343.8364      -     -    1s
H    0     0                    13806.000000 14343.8364  3.90%     -    1s
H    0     0                    13840.000000 14343.8364  3.64%     -    1s
     0     0 14018.1101    0  461 13840.0000 14018.1101  1.29%     -    3s
H    0     0                    13850.000000 14018.1101  1.21%     -    3s
H    0     0                    13919.000000 14018.1101  0.71%     -    3s
H    0     0                    13939.000000 14018.1101  0.57%     -    3s
     0     0 14014.9371    0  427 13939.0000 14014.9371  0.54%     -    4s
     0     0 13953.9740    0  148 13939.0000 13953.9740  0.11%     -    5s
     0     0 13951.5743    0  167 13939.0000 13951.5743  0.09%     -    6s
     0     0 13951.3751    0  160 13939.0000 13951.3751  0.09%     -    6s
     0     0 13951.3751    0  160 13939.0000 13951.3751  0.09%     -    7s
     0     0 13945.2782    0   89 13939.0000 13945.2782  0.05%     -    8s
     0     0 13943.9189    0   89 13939.0000 13943.9189  0.04%     -    9s
     0     0 13943.8069    0   87 13939.0000 13943.8069  0.03%     -   10s
     0     0 13942.4978    0   56 13939.0000 13942.4978  0.03%     -   11s
     0     0 13942.4160    0   57 13939.0000 13942.4160  0.02%     -   12s
     0     0 13941.5000    0   31 13939.0000 13941.5000  0.02%     -   13s
     0     0 13941.4487    0   35 13939.0000 13941.4487  0.02%     -   14s
     0     0 13941.1667    0   39 13939.0000 13941.1667  0.02%     -   15s
     0     0 13941.1667    0  783 13939.0000 13941.1667  0.02%     -   17s
     0     0 13941.1667    0  300 13939.0000 13941.1667  0.02%     -   19s
     0     0 13941.1667    0   71 13939.0000 13941.1667  0.02%     -   19s
     0     0 13941.1667    0   69 13939.0000 13941.1667  0.02%     -   20s
     0     0 13941.1667    0   69 13939.0000 13941.1667  0.02%     -   21s
     0     0 13940.3333    0   25 13939.0000 13940.3333  0.01%     -   22s
     0     0 13940.3333    0   26 13939.0000 13940.3333  0.01%     -   23s
     0     0 13940.3000    0   23 13939.0000 13940.3000  0.01%     -   24s
     0     0 13940.3000    0  159 13939.0000 13940.3000  0.01%     -   25s
     0     0 13940.3000    0   48 13939.0000 13940.3000  0.01%     -   26s
     0     0 13940.3000    0   16 13939.0000 13940.3000  0.01%     -   26s
     0     0 13940.3000    0   21 13939.0000 13940.3000  0.01%     -   27s
     0     0 13940.2152    0   26 13939.0000 13940.2152  0.01%     -   28s

Cutting planes:
  Gomory: 71
  Lift-and-project: 5
  Cover: 67
  Clique: 2
  MIR: 117
  StrongCG: 10
  GUB cover: 106
  Zero half: 16
  Mod-K: 1
  RLT: 15
  Lazy constraints: 4

Explored 1 nodes (13430 simplex iterations) in 29.20 seconds (7.88 work units)
Thread count was 8 (of 8 available processors)

Solution count 6: 13939 13919 13850 ... -0

Optimal solution found (tolerance 0.00e+00)
Best objective 1.393900000000e+04, best bound 1.393900000000e+04, gap 0.0000%

User-callback calls 2294, time in user-callback 22.02 sec
